N = 720;
M = 900;
Edge_Start = [1, 1, 3, 3, 4, 5, 5, 6, 7, 8, 9, 9, 10, 11, 12, 13, 13, 14, 15, 15, 16, 17, 17, 18, 19, 19, 20, 21, 21, 23, 23, 24, 25, 25, 26, 27, 27, 28, 29, 29, 31, 31, 32, 33, 33, 34, 35, 37, 38, 39, 39, 40, 41, 41, 42, 43, 43, 44, 47, 47, 48, 49, 49, 50, 51, 51, 52, 53, 53, 54, 55, 55, 56, 57, 57, 58, 59, 59, 60, 61, 61, 62, 63, 64, 65, 66, 67, 67, 68, 69, 69, 70, 71, 71, 72, 73, 74, 75, 76, 77, 78, 78, 80, 82, 83, 84, 85, 86, 86, 87, 88, 88, 89, 90, 91, 92, 93, 94, 94, 95, 96, 96, 97, 98, 98, 99, 100, 100, 102, 102, 103, 104, 104, 105, 106, 106, 107, 108, 108, 110, 110, 111, 112, 112, 114, 115, 116, 117, 117, 118, 119, 119, 120, 121, 121, 122, 123, 124, 125, 125, 126, 127, 128, 129, 130, 131, 131, 132, 133, 133, 134, 135, 135, 136, 137, 138, 139, 140, 141, 141, 142, 143, 144, 145, 145, 146, 147, 148, 149, 150, 151, 152, 152, 153, 154, 154, 155, 156, 158, 158, 159, 160, 160, 161, 162, 162, 163, 164, 165, 166, 166, 167, 168, 169, 170, 170, 171, 172, 173, 174, 174, 175, 176, 176, 177, 178, 178, 179, 180, 180, 181, 182, 182, 183, 184, 184, 185, 186, 186, 187, 188, 190, 191, 191, 193, 193, 194, 195, 195, 196, 197, 198, 199, 199, 200, 201, 201, 202, 203, 204, 205, 205, 206, 208, 209, 209, 210, 211, 211, 212, 213, 213, 214, 215, 216, 217, 218, 219, 219, 220, 221, 221, 222, 223, 223, 224, 225, 225, 226, 227, 228, 228, 230, 232, 232, 233, 234, 234, 235, 236, 237, 238, 238, 239, 240, 240, 241, 242, 242, 243, 244, 244, 245, 246, 246, 248, 249, 250, 250, 251, 252, 253, 254, 254, 255, 256, 257, 258, 260, 260, 261, 262, 262, 263, 264, 264, 266, 267, 267, 268, 269, 269, 270, 271, 271, 272, 273, 273, 274, 275, 275, 276, 277, 278, 279, 279, 280, 281, 281, 283, 283, 284, 285, 287, 287, 288, 289, 289, 290, 291, 293, 293, 294, 295, 296, 297, 297, 298, 299, 299, 300, 301, 302, 303, 304, 304, 306, 306, 308, 308, 309, 310, 311, 312, 312, 313, 314, 315, 318, 318, 319, 320, 321, 322, 322, 323, 324, 325, 326, 326, 327, 328, 328, 329, 330, 330, 331, 332, 332, 333, 334, 334, 335, 337, 338, 338, 339, 340, 340, 342, 343, 343, 344, 345, 345, 346, 347, 347, 348, 349, 349, 350, 351, 351, 352, 353, 353, 354, 355, 355, 357, 357, 359, 360, 361, 361, 362, 363, 363, 364, 365, 365, 366, 367, 367, 368, 369, 369, 370, 371, 371, 372, 373, 374, 375, 375, 376, 377, 377, 378, 379, 380, 381, 382, 382, 383, 384, 384, 385, 386, 386, 387, 388, 388, 389, 390, 390, 391, 392, 392, 393, 394, 394, 395, 396, 397, 398, 400, 400, 401, 402, 402, 404, 404, 405, 406, 406, 407, 408, 408, 409, 410, 411, 412, 413, 414, 416, 416, 418, 419, 419, 420, 421, 422, 423, 423, 424, 425, 425, 427, 428, 429, 429, 430, 431, 431, 432, 434, 435, 436, 437, 437, 438, 439, 439, 440, 441, 441, 442, 444, 445, 446, 447, 448, 449, 449, 451, 451, 453, 453, 455, 456, 456, 457, 458, 458, 459, 460, 460, 462, 462, 463, 464, 464, 465, 466, 467, 468, 469, 470, 470, 471, 472, 473, 474, 474, 475, 476, 476, 477, 478, 478, 479, 480, 480, 481, 482, 482, 483, 484, 484, 486, 487, 488, 489, 490, 490, 492, 492, 494, 495, 496, 497, 497, 498, 499, 499, 500, 501, 501, 502, 503, 503, 505, 505, 506, 507, 508, 509, 510, 511, 511, 512, 513, 514, 516, 517, 517, 518, 519, 519, 520, 521, 522, 523, 523, 524, 525, 525, 526, 527, 527, 528, 529, 529, 530, 531, 532, 533, 534, 534, 535, 536, 536, 537, 538, 538, 540, 540, 541, 542, 542, 543, 544, 544, 545, 546, 546, 547, 548, 549, 550, 550, 551, 552, 552, 553, 554, 554, 555, 556, 556, 557, 558, 558, 559, 560, 560, 561, 563, 564, 564, 565, 566, 566, 567, 568, 570, 571, 571, 572, 573, 573, 574, 575, 576, 577, 577, 578, 579, 579, 580, 581, 581, 582, 583, 583, 584, 585, 585, 587, 588, 589, 589, 590, 591, 592, 593, 593, 594, 595, 595, 596, 597, 597, 598, 599, 599, 600, 601, 601, 602, 603, 603, 605, 605, 606, 607, 608, 608, 609, 610, 610, 611, 612, 612, 613, 614, 614, 616, 616, 617, 618, 618, 620, 621, 622, 622, 623, 624, 624, 625, 626, 626, 627, 628, 628, 629, 630, 631, 632, 632, 633, 634, 634, 635, 636, 636, 637, 638, 638, 639, 640, 640, 641, 642, 642, 643, 644, 644, 647, 647, 648, 649, 649, 650, 651, 651, 652, 653, 653, 654, 655, 655, 657, 657, 659, 660, 661, 661, 662, 663, 665, 665, 666, 667, 668, 669, 669, 670, 671, 671, 672, 673, 673, 674, 675, 676, 677, 677, 678, 679, 680, 681, 682, 683, 684, 686, 687, 689, 690, 691, 692, 693, 694, 695, 696, 697, 698, 699, 700, 701, 702, 703, 704, 705, 706, 707, 708, 709, 710, 711, 712, 713, 714, 715, 716, 717, 718, 719];
Edge_End = [2, 38, 4, 40, 5, 6, 42, 7, 44, 9, 10, 46, 11, 48, 13, 14, 50, 15, 16, 52, 17, 18, 54, 19, 20, 56, 21, 22, 58, 24, 60, 25, 26, 62, 27, 28, 64, 29, 30, 66, 32, 68, 33, 34, 70, 35, 36, 74, 39, 40, 77, 41, 42, 79, 43, 44, 81, 45, 48, 85, 49, 50, 87, 51, 52, 89, 53, 54, 91, 55, 56, 93, 57, 58, 95, 59, 60, 97, 61, 62, 99, 63, 101, 65, 66, 67, 68, 105, 69, 70, 107, 71, 72, 109, 73, 74, 75, 113, 114, 78, 79, 116, 118, 83, 84, 122, 86, 87, 124, 88, 89, 126, 90, 91, 92, 130, 94, 95, 132, 96, 97, 134, 98, 99, 136, 100, 101, 138, 103, 140, 104, 105, 142, 106, 107, 144, 108, 109, 146, 111, 148, 112, 113, 150, 115, 153, 117, 118, 155, 119, 120, 157, 121, 122, 159, 123, 124, 125, 126, 163, 127, 165, 129, 130, 131, 132, 169, 133, 134, 171, 135, 136, 173, 137, 138, 139, 140, 141, 142, 179, 143, 144, 145, 146, 183, 147, 148, 149, 187, 151, 189, 153, 190, 154, 155, 192, 156, 157, 159, 196, 160, 161, 198, 162, 163, 200, 164, 165, 166, 167, 204, 168, 169, 170, 171, 208, 172, 210, 174, 175, 212, 176, 177, 214, 178, 179, 216, 180, 181, 218, 182, 183, 220, 184, 185, 222, 186, 187, 224, 188, 189, 191, 192, 229, 194, 231, 195, 196, 233, 197, 235, 199, 200, 237, 201, 202, 239, 203, 241, 205, 206, 243, 207, 209, 210, 247, 211, 212, 249, 213, 214, 251, 215, 216, 217, 255, 219, 220, 257, 221, 222, 259, 223, 224, 261, 225, 226, 263, 227, 265, 229, 266, 231, 233, 270, 234, 235, 272, 236, 237, 238, 239, 276, 240, 241, 278, 242, 243, 280, 244, 245, 282, 246, 247, 284, 286, 250, 251, 288, 252, 253, 254, 255, 292, 256, 257, 258, 296, 261, 298, 262, 263, 300, 264, 265, 302, 267, 268, 305, 269, 270, 307, 271, 272, 309, 273, 274, 311, 275, 276, 313, 277, 315, 279, 280, 317, 281, 282, 319, 284, 321, 285, 286, 288, 325, 289, 290, 327, 291, 292, 294, 331, 295, 333, 297, 298, 335, 299, 300, 337, 301, 339, 303, 341, 305, 342, 307, 344, 309, 346, 310, 348, 312, 313, 350, 314, 352, 316, 319, 356, 320, 358, 322, 323, 360, 324, 362, 326, 327, 364, 328, 329, 366, 330, 331, 368, 332, 333, 370, 334, 335, 372, 336, 338, 339, 376, 340, 341, 378, 343, 344, 381, 345, 346, 383, 347, 348, 385, 349, 350, 387, 351, 352, 389, 353, 354, 391, 355, 356, 393, 358, 395, 397, 361, 362, 399, 363, 364, 401, 365, 366, 403, 367, 368, 405, 369, 370, 407, 371, 372, 409, 373, 374, 375, 376, 413, 377, 378, 415, 379, 417, 381, 382, 383, 420, 384, 385, 422, 386, 387, 424, 388, 389, 426, 390, 391, 428, 392, 393, 430, 394, 395, 432, 396, 434, 398, 436, 401, 438, 402, 403, 440, 405, 442, 406, 407, 444, 408, 409, 446, 410, 411, 412, 413, 414, 415, 417, 454, 419, 420, 457, 421, 422, 423, 424, 461, 425, 426, 463, 428, 429, 430, 467, 431, 432, 469, 433, 435, 436, 437, 438, 475, 439, 440, 477, 441, 442, 479, 443, 445, 483, 447, 448, 449, 450, 487, 452, 489, 454, 491, 493, 457, 494, 458, 459, 496, 460, 461, 498, 463, 500, 464, 465, 502, 466, 467, 468, 506, 470, 471, 508, 472, 473, 474, 475, 512, 476, 477, 514, 478, 479, 516, 480, 481, 518, 482, 483, 520, 484, 485, 522, 524, 488, 489, 490, 491, 528, 493, 530, 495, 533, 497, 498, 535, 499, 500, 537, 501, 502, 539, 503, 504, 541, 506, 543, 507, 545, 509, 510, 511, 512, 549, 513, 514, 515, 517, 518, 555, 519, 520, 557, 521, 522, 523, 524, 561, 525, 526, 563, 527, 528, 565, 529, 530, 567, 531, 569, 570, 534, 535, 572, 536, 537, 574, 538, 539, 576, 541, 578, 542, 543, 580, 544, 545, 582, 546, 547, 584, 548, 586, 550, 551, 588, 552, 553, 590, 554, 555, 592, 556, 557, 594, 558, 559, 596, 560, 561, 598, 562, 564, 565, 602, 566, 567, 604, 568, 569, 571, 572, 609, 573, 574, 611, 575, 576, 577, 578, 615, 579, 580, 617, 581, 582, 619, 583, 584, 621, 585, 586, 623, 625, 589, 590, 627, 591, 592, 593, 594, 631, 595, 596, 633, 597, 598, 635, 599, 600, 637, 601, 602, 639, 603, 604, 641, 606, 643, 607, 645, 609, 646, 610, 611, 648, 612, 613, 650, 614, 615, 652, 617, 654, 618, 619, 656, 658, 622, 623, 660, 624, 625, 662, 626, 627, 664, 628, 629, 666, 630, 631, 632, 633, 670, 634, 635, 672, 636, 637, 674, 638, 639, 676, 640, 641, 678, 642, 643, 680, 644, 645, 682, 648, 684, 649, 650, 686, 651, 652, 688, 653, 654, 690, 655, 656, 692, 658, 694, 660, 661, 662, 698, 663, 664, 666, 702, 667, 668, 669, 670, 706, 671, 672, 708, 673, 674, 710, 675, 712, 677, 678, 714, 679, 680, 681, 682, 683, 720, 685, 687, 688, 690, 691, 692, 693, 694, 695, 696, 697, 698, 699, 700, 701, 702, 703, 704, 705, 706, 707, 708, 709, 710, 711, 712, 713, 714, 715, 716, 717, 718, 719, 720];
L = [5, 12, 15, 16, 8, 15, 12, 15, 17, 10, 14, 5, 3, 1, 6, 2, 11, 7, 5, 2, 11, 4, 16, 5, 9, 6, 3, 6, 17, 15, 10, 18, 9, 12, 8, 16, 18, 3, 9, 11, 5, 8, 7, 5, 14, 19, 3, 13, 1, 18, 7, 4, 17, 17, 2, 2, 18, 14, 2, 7, 4, 2, 8, 18, 4, 5, 16, 12, 3, 4, 16, 12, 13, 12, 9, 3, 10, 15, 2, 11, 10, 2, 2, 12, 9, 5, 1, 12, 2, 13, 14, 8, 8, 14, 13, 16, 15, 10, 16, 15, 4, 4, 5, 6, 5, 10, 6, 17, 3, 15, 11, 10, 13, 1, 18, 8, 13, 4, 8, 18, 1, 2, 2, 15, 9, 5, 8, 12, 8, 4, 14, 18, 6, 6, 7, 15, 7, 15, 18, 9, 19, 14, 6, 6, 10, 18, 4, 6, 12, 12, 10, 11, 16, 11, 11, 11, 7, 18, 6, 2, 5, 14, 18, 1, 8, 12, 17, 18, 9, 15, 7, 14, 1, 10, 1, 16, 7, 8, 4, 3, 14, 11, 10, 8, 15, 7, 10, 14, 7, 12, 6, 3, 7, 16, 2, 2, 8, 17, 1, 15, 7, 14, 13, 5, 12, 7, 4, 6, 6, 1, 16, 19, 6, 4, 17, 7, 8, 13, 2, 3, 6, 4, 11, 2, 2, 17, 17, 16, 18, 11, 12, 3, 11, 16, 10, 10, 2, 4, 8, 5, 9, 11, 14, 8, 12, 6, 1, 6, 5, 5, 3, 3, 11, 11, 2, 4, 18, 7, 8, 6, 3, 4, 10, 18, 11, 6, 10, 17, 12, 13, 9, 3, 1, 11, 6, 4, 7, 1, 14, 10, 1, 1, 10, 6, 1, 14, 7, 7, 1, 9, 17, 4, 19, 15, 19, 2, 5, 18, 1, 11, 5, 5, 13, 12, 16, 11, 12, 14, 2, 11, 15, 9, 2, 2, 1, 19, 13, 16, 17, 4, 12, 2, 2, 18, 10, 9, 1, 19, 16, 15, 14, 17, 8, 1, 5, 16, 1, 16, 12, 7, 13, 8, 1, 6, 6, 1, 8, 2, 4, 2, 13, 12, 15, 4, 9, 9, 6, 9, 17, 14, 5, 11, 12, 18, 8, 6, 11, 10, 14, 1, 2, 1, 18, 3, 10, 18, 14, 11, 3, 2, 1, 16, 16, 15, 12, 10, 5, 6, 14, 11, 7, 19, 9, 7, 11, 4, 9, 16, 18, 7, 11, 4, 16, 15, 11, 14, 9, 14, 12, 1, 15, 15, 18, 13, 16, 5, 11, 18, 13, 12, 14, 4, 16, 5, 6, 17, 7, 10, 4, 11, 9, 12, 2, 11, 8, 15, 11, 9, 17, 13, 1, 9, 9, 17, 11, 4, 16, 9, 18, 8, 12, 14, 9, 4, 10, 19, 5, 6, 13, 5, 12, 19, 1, 1, 16, 2, 17, 8, 4, 10, 1, 7, 13, 10, 12, 18, 1, 14, 9, 14, 12, 11, 17, 1, 18, 11, 5, 15, 8, 10, 11, 5, 17, 6, 8, 14, 16, 9, 2, 8, 14, 10, 12, 8, 16, 18, 7, 9, 3, 13, 9, 11, 11, 14, 5, 6, 8, 15, 2, 7, 15, 15, 6, 17, 15, 3, 5, 18, 6, 1, 15, 10, 9, 3, 1, 11, 15, 1, 7, 2, 4, 14, 12, 17, 17, 1, 9, 7, 17, 12, 5, 4, 12, 18, 11, 10, 4, 7, 9, 2, 15, 5, 6, 13, 18, 6, 5, 6, 7, 17, 16, 16, 15, 14, 2, 3, 1, 1, 15, 1, 11, 1, 6, 3, 13, 7, 3, 2, 10, 12, 13, 6, 5, 7, 16, 16, 1, 1, 2, 1, 18, 17, 18, 10, 19, 10, 7, 2, 6, 13, 15, 7, 3, 5, 9, 17, 17, 10, 13, 8, 7, 2, 14, 17, 1, 16, 9, 16, 18, 19, 11, 5, 7, 3, 5, 11, 15, 9, 19, 8, 7, 11, 9, 10, 3, 2, 16, 5, 13, 11, 3, 1, 19, 17, 5, 9, 19, 13, 15, 8, 15, 4, 4, 12, 6, 11, 10, 2, 18, 3, 4, 13, 15, 15, 2, 13, 9, 3, 15, 17, 3, 19, 17, 5, 7, 19, 3, 4, 9, 1, 17, 5, 9, 16, 10, 3, 15, 2, 6, 2, 3, 11, 18, 12, 7, 7, 18, 12, 17, 16, 13, 16, 5, 7, 13, 8, 13, 18, 7, 10, 18, 1, 2, 7, 8, 6, 7, 12, 14, 2, 7, 12, 4, 3, 1, 14, 5, 16, 9, 12, 7, 1, 3, 7, 15, 12, 6, 14, 11, 1, 4, 7, 3, 7, 13, 4, 12, 19, 6, 6, 15, 17, 2, 17, 4, 4, 10, 4, 16, 12, 8, 14, 1, 18, 12, 18, 10, 12, 5, 15, 17, 3, 11, 3, 15, 5, 3, 5, 15, 17, 15, 15, 5, 7, 4, 6, 3, 1, 1, 17, 8, 2, 4, 4, 10, 14, 10, 8, 8, 1, 9, 15, 16, 16, 7, 5, 14, 11, 2, 13, 11, 1, 1, 9, 2, 8, 1, 13, 1, 13, 6, 15, 2, 16, 8, 16, 2, 5, 18, 13, 4, 2, 1, 11, 16, 11, 17, 19, 5, 5, 17, 19, 5, 18, 7, 15, 17, 4, 17, 5, 1, 11, 3, 11, 1, 4, 17, 10, 5, 11, 9, 7, 17, 15, 6, 9, 16, 7, 6, 7, 14, 1, 9, 19, 1, 3, 16, 3, 16, 13, 11, 7, 17, 12, 10, 16, 16, 1, 16, 18];
T = [15, 3, 14, 11, 14, 12, 6, 8, 9, 11, 15, 18, 1, 1, 14, 2, 14, 12, 4, 1, 9, 5, 14, 6, 12, 3, 1, 1, 14, 20, 15, 12, 9, 7, 5, 12, 19, 1, 15, 15, 16, 3, 7, 7, 5, 26, 5, 6, 2, 16, 4, 4, 21, 9, 2, 3, 12, 12, 3, 6, 1, 7, 6, 15, 10, 7, 25, 10, 1, 2, 13, 14, 16, 4, 13, 4, 3, 22, 8, 3, 2, 1, 8, 3, 15, 6, 1, 13, 1, 12, 17, 5, 4, 25, 24, 7, 13, 7, 19, 16, 1, 1, 11, 16, 1, 9, 10, 19, 3, 9, 13, 12, 11, 2, 21, 14, 3, 8, 2, 15, 1, 4, 4, 11, 19, 11, 9, 12, 9, 4, 20, 14, 13, 9, 1, 19, 3, 16, 24, 15, 24, 14, 2, 10, 9, 10, 3, 1, 9, 9, 9, 7, 10, 16, 13, 18, 8, 21, 13, 8, 6, 15, 15, 1, 1, 17, 10, 15, 16, 15, 1, 5, 5, 21, 3, 13, 1, 1, 8, 1, 13, 6, 7, 9, 19, 1, 18, 1, 8, 12, 2, 1, 4, 16, 3, 5, 7, 18, 2, 10, 8, 15, 17, 1, 19, 4, 1, 17, 11, 4, 14, 28, 1, 1, 19, 8, 12, 12, 1, 9, 3, 3, 10, 1, 6, 25, 16, 19, 17, 7, 21, 7, 3, 16, 9, 8, 2, 2, 4, 1, 4, 10, 13, 12, 22, 1, 1, 3, 8, 1, 1, 2, 16, 16, 1, 5, 7, 4, 1, 11, 1, 2, 4, 15, 11, 7, 2, 14, 14, 14, 15, 3, 1, 6, 11, 1, 1, 1, 15, 12, 1, 5, 1, 5, 4, 11, 13, 1, 2, 14, 19, 4, 15, 25, 29, 9, 8, 24, 1, 14, 4, 1, 11, 12, 14, 16, 14, 11, 1, 4, 23, 16, 1, 3, 10, 20, 9, 6, 15, 1, 2, 5, 2, 16, 7, 1, 7, 21, 9, 23, 12, 12, 5, 7, 1, 15, 4, 16, 5, 1, 9, 5, 1, 6, 1, 9, 21, 8, 8, 1, 15, 8, 8, 1, 10, 5, 2, 3, 19, 17, 11, 11, 15, 23, 16, 7, 12, 5, 16, 1, 1, 1, 18, 10, 3, 14, 19, 13, 1, 1, 2, 12, 9, 6, 4, 13, 8, 9, 8, 5, 5, 15, 4, 1, 12, 3, 9, 14, 25, 1, 13, 1, 20, 15, 8, 7, 3, 6, 14, 1, 5, 20, 9, 16, 20, 4, 18, 13, 17, 10, 8, 1, 18, 4, 9, 20, 11, 14, 6, 7, 8, 19, 1, 16, 1, 18, 11, 10, 23, 14, 3, 4, 8, 9, 17, 1, 16, 1, 19, 9, 12, 15, 9, 3, 15, 15, 14, 6, 19, 1, 6, 23, 7, 1, 18, 1, 22, 1, 1, 6, 7, 13, 15, 17, 9, 16, 1, 16, 8, 21, 7, 17, 18, 1, 24, 16, 1, 15, 14, 17, 4, 1, 5, 14, 7, 9, 23, 10, 1, 3, 9, 8, 8, 8, 13, 10, 3, 10, 5, 22, 5, 16, 15, 2, 11, 12, 1, 13, 4, 8, 22, 13, 9, 22, 15, 5, 4, 24, 1, 1, 14, 4, 5, 1, 4, 2, 12, 1, 11, 1, 5, 17, 12, 11, 16, 1, 6, 13, 17, 12, 1, 1, 18, 22, 13, 9, 1, 8, 1, 8, 22, 2, 1, 10, 16, 5, 4, 1, 12, 19, 19, 26, 15, 13, 13, 1, 1, 1, 13, 8, 11, 1, 10, 1, 13, 15, 4, 1, 9, 6, 8, 1, 4, 13, 22, 15, 8, 5, 1, 1, 22, 19, 17, 9, 22, 2, 10, 6, 5, 13, 22, 17, 9, 9, 3, 22, 15, 5, 14, 3, 4, 13, 10, 14, 1, 19, 6, 16, 7, 14, 9, 1, 3, 5, 11, 11, 8, 15, 15, 11, 7, 11, 3, 21, 1, 1, 23, 13, 14, 7, 1, 1, 16, 17, 12, 7, 12, 3, 11, 16, 16, 7, 1, 12, 6, 11, 13, 3, 15, 5, 8, 11, 22, 3, 6, 11, 10, 6, 14, 14, 7, 15, 3, 6, 6, 20, 1, 5, 2, 1, 21, 9, 12, 19, 7, 4, 23, 7, 8, 1, 8, 13, 21, 1, 2, 4, 20, 11, 17, 11, 8, 19, 5, 7, 14, 18, 6, 18, 5, 13, 20, 1, 1, 10, 8, 1, 1, 9, 11, 7, 8, 11, 4, 1, 3, 10, 1, 24, 13, 14, 9, 3, 1, 7, 4, 1, 2, 11, 13, 1, 6, 6, 1, 4, 3, 15, 9, 13, 4, 8, 7, 12, 6, 14, 5, 6, 13, 1, 15, 8, 10, 10, 7, 13, 16, 21, 11, 14, 9, 17, 11, 1, 10, 1, 10, 10, 2, 9, 13, 15, 22, 20, 16, 7, 1, 4, 1, 3, 4, 16, 11, 5, 13, 6, 1, 12, 11, 15, 8, 5, 14, 15, 8, 15, 7, 1, 18, 9, 1, 12, 6, 1, 1, 4, 3, 5, 1, 15, 6, 14, 1, 13, 17, 6, 5, 11, 2, 5, 18, 23, 11, 1, 2, 11, 19, 1, 12, 19, 10, 4, 12, 15, 4, 10, 1, 18, 11, 3, 21, 4, 1, 13, 1, 16, 1, 5, 7, 4, 6, 11, 9, 10, 13, 17, 3, 8, 14, 10, 7, 10, 11, 8, 10, 17, 1, 1, 16, 5, 25, 19, 12, 1, 14, 19, 16, 14, 20, 1, 17, 12];
Lower_Bound = [0, 15, 32, 46, 52, 64, 60, 150, 139, 124, 123, 158, 144, 146, 156, 160, 169, 174, 180, 192, 193, 194, 225, 240, 228, 237, 242, 254, 255, 270, 280, 296, 295, 302, 328, 333, 331, 3, 5, 21, 25, 46, 48, 51, 63, 157, 119, 122, 123, 130, 145, 155, 158, 168, 170, 183, 199, 203, 207, 210, 218, 221, 222, 261, 264, 270, 276, 277, 278, 290, 295, 299, 323, 325, 312, 95, 9, 25, 26, 41, 60, 100, 84, 83, 113, 103, 122, 131, 144, 155, 157, 178, 184, 187, 195, 210, 211, 215, 220, 231, 230, 256, 265, 274, 288, 296, 295, 298, 314, 307, 317, 303, 305, 76, 67, 26, 29, 30, 39, 48, 58, 74, 92, 100, 121, 134, 140, 203, 188, 187, 186, 189, 204, 210, 209, 214, 235, 238, 251, 252, 253, 261, 274, 280, 278, 287, 288, 283, 282, 293, 281, 58, 57, 41, 38, 45, 46, 73, 71, 79, 94, 95, 114, 115, 132, 143, 147, 175, 176, 177, 196, 196, 204, 203, 212, 215, 225, 231, 254, 256, 273, 252, 259, 270, 274, 272, 274, 275, 279, 62, 59, 46, 109, 87, 86, 83, 84, 96, 98, 99, 100, 105, 109, 148, 137, 138, 142, 185, 173, 184, 186, 200, 214, 216, 217, 223, 226, 249, 248, 249, 261, 262, 263, 268, 279, 292, 294, 90, 71, 125, 110, 119, 94, 93, 85, 86, 100, 104, 105, 117, 110, 124, 135, 139, 162, 163, 166, 219, 200, 209, 215, 216, 218, 223, 225, 232, 233, 240, 266, 276, 267, 279, 280, 287, 288, 94, 98, 114, 115, 124, 123, 117, 126, 124, 116, 115, 123, 133, 134, 125, 127, 130, 190, 173, 184, 199, 247, 224, 231, 243, 240, 239, 283, 284, 302, 261, 264, 278, 285, 284, 286, 302, 311, 107, 103, 128, 120, 132, 124, 129, 134, 132, 131, 134, 131, 145, 139, 171, 146, 159, 201, 221, 236, 243, 256, 250, 236, 241, 261, 262, 282, 298, 299, 289, 283, 301, 286, 290, 298, 309, 317, 120, 127, 135, 136, 137, 155, 144, 158, 144, 148, 143, 160, 161, 162, 172, 172, 160, 260, 229, 232, 246, 257, 251, 252, 250, 257, 258, 259, 281, 282, 288, 301, 316, 319, 310, 311, 315, 336, 163, 146, 138, 137, 153, 154, 168, 161, 162, 157, 164, 173, 172, 171, 180, 187, 195, 251, 241, 247, 249, 259, 280, 275, 289, 275, 272, 260, 273, 277, 299, 312, 321, 335, 324, 319, 347, 343, 164, 163, 162, 166, 168, 169, 172, 177, 176, 188, 187, 192, 175, 186, 188, 194, 208, 221, 238, 243, 244, 262, 284, 286, 287, 288, 273, 281, 281, 283, 284, 294, 310, 318, 322, 361, 371, 386, 203, 177, 186, 173, 172, 171, 196, 188, 189, 199, 212, 204, 208, 187, 196, 202, 203, 207, 220, 242, 250, 255, 256, 278, 295, 304, 306, 303, 308, 321, 369, 299, 308, 317, 320, 342, 362, 367, 218, 221, 187, 195, 185, 186, 205, 197, 190, 199, 200, 214, 209, 220, 204, 219, 234, 242, 235, 238, 251, 252, 275, 276, 299, 299, 306, 307, 323, 340, 352, 364, 367, 351, 335, 336, 348, 359, 248, 225, 214, 209, 214, 192, 198, 209, 208, 202, 216, 223, 226, 228, 248, 249, 251, 253, 274, 283, 294, 301, 296, 289, 290, 298, 312, 313, 317, 337, 354, 373, 362, 354, 349, 342, 360, 366, 245, 227, 222, 218, 217, 216, 208, 209, 210, 221, 228, 236, 232, 235, 245, 262, 252, 285, 286, 289, 290, 294, 295, 297, 303, 304, 310, 311, 315, 330, 339, 343, 351, 363, 363, 387, 392, 392, 254, 239, 229, 219, 232, 243, 232, 218, 246, 229, 230, 237, 310, 236, 246, 248, 261, 276, 296, 296, 297, 301, 304, 308, 321, 310, 320, 314, 326, 337, 345, 350, 365, 373, 380, 381, 390, 391, 262, 242, 236, 237, 241, 242, 241, 247, 257, 248, 231, 295, 300, 257, 255, 260, 278, 289, 290, 300, 298, 317, 318, 330, 326, 330, 321, 325, 335, 350, 359, 362, 380, 381, 394, 395, 402, 403, 243, 250, 240, 244, 250, 259, 248, 257, 254, 267, 284, 287, 295, 293, 283, 290, 300, 311, 311, 321, 338, 339, 340, 350, 345, 345, 326, 338, 339, 353, 366, 382, 396, 416, 417, 420, 408];
Upper_Bound = [1, 16, 33, 47, 53, 65, 61, 151, 140, 125, 124, 159, 145, 147, 157, 161, 170, 175, 181, 193, 194, 195, 226, 241, 229, 238, 243, 255, 256, 271, 281, 297, 296, 303, 329, 334, 332, 4, 6, 22, 26, 47, 49, 52, 64, 158, 120, 123, 124, 131, 146, 156, 159, 169, 171, 184, 200, 204, 208, 211, 219, 222, 223, 262, 265, 271, 277, 278, 279, 291, 296, 300, 324, 326, 313, 96, 10, 26, 27, 42, 61, 101, 85, 84, 114, 104, 123, 132, 145, 156, 158, 179, 185, 188, 196, 211, 212, 216, 221, 232, 231, 257, 266, 275, 289, 297, 296, 299, 315, 308, 318, 304, 306, 77, 68, 27, 30, 31, 40, 49, 59, 75, 93, 101, 122, 135, 141, 204, 189, 188, 187, 190, 205, 211, 210, 215, 236, 239, 252, 253, 254, 262, 275, 281, 279, 288, 289, 284, 283, 294, 282, 59, 58, 42, 39, 46, 47, 74, 72, 80, 95, 96, 115, 116, 133, 144, 148, 176, 177, 178, 197, 197, 205, 204, 213, 216, 226, 232, 255, 257, 274, 253, 260, 271, 275, 273, 275, 276, 280, 63, 60, 47, 110, 88, 87, 84, 85, 97, 99, 100, 101, 106, 110, 149, 138, 139, 143, 186, 174, 185, 187, 201, 215, 217, 218, 224, 227, 250, 249, 250, 262, 263, 264, 269, 280, 293, 295, 91, 72, 126, 111, 120, 95, 94, 86, 87, 101, 105, 106, 118, 111, 125, 136, 140, 163, 164, 167, 220, 201, 210, 216, 217, 219, 224, 226, 233, 234, 241, 267, 277, 268, 280, 281, 288, 289, 95, 99, 115, 116, 125, 124, 118, 127, 125, 117, 116, 124, 134, 135, 126, 128, 131, 191, 174, 185, 200, 248, 225, 232, 244, 241, 240, 284, 285, 303, 262, 265, 279, 286, 285, 287, 303, 312, 108, 104, 129, 121, 133, 125, 130, 135, 133, 132, 135, 132, 146, 140, 172, 147, 160, 202, 222, 237, 244, 257, 251, 237, 242, 262, 263, 283, 299, 300, 290, 284, 302, 287, 291, 299, 310, 318, 121, 128, 136, 137, 138, 156, 145, 159, 145, 149, 144, 161, 162, 163, 173, 173, 161, 261, 230, 233, 247, 258, 252, 253, 251, 258, 259, 260, 282, 283, 289, 302, 317, 320, 311, 312, 316, 337, 164, 147, 139, 138, 154, 155, 169, 162, 163, 158, 165, 174, 173, 172, 181, 188, 196, 252, 242, 248, 250, 260, 281, 276, 290, 276, 273, 261, 274, 278, 300, 313, 322, 336, 325, 320, 348, 344, 165, 164, 163, 167, 169, 170, 173, 178, 177, 189, 188, 193, 176, 187, 189, 195, 209, 222, 239, 244, 245, 263, 285, 287, 288, 289, 274, 282, 282, 284, 285, 295, 311, 319, 323, 362, 372, 387, 204, 178, 187, 174, 173, 172, 197, 189, 190, 200, 213, 205, 209, 188, 197, 203, 204, 208, 221, 243, 251, 256, 257, 279, 296, 305, 307, 304, 309, 322, 370, 300, 309, 318, 321, 343, 363, 368, 219, 222, 188, 196, 186, 187, 206, 198, 191, 200, 201, 215, 210, 221, 205, 220, 235, 243, 236, 239, 252, 253, 276, 277, 300, 300, 307, 308, 324, 341, 353, 365, 368, 352, 336, 337, 349, 360, 249, 226, 215, 210, 215, 193, 199, 210, 209, 203, 217, 224, 227, 229, 249, 250, 252, 254, 275, 284, 295, 302, 297, 290, 291, 299, 313, 314, 318, 338, 355, 374, 363, 355, 350, 343, 361, 367, 246, 228, 223, 219, 218, 217, 209, 210, 211, 222, 229, 237, 233, 236, 246, 263, 253, 286, 287, 290, 291, 295, 296, 298, 304, 305, 311, 312, 316, 331, 340, 344, 352, 364, 364, 388, 393, 393, 255, 240, 230, 220, 233, 244, 233, 219, 247, 230, 231, 238, 311, 237, 247, 249, 262, 277, 297, 297, 298, 302, 305, 309, 322, 311, 321, 315, 327, 338, 346, 351, 366, 374, 381, 382, 391, 392, 263, 243, 237, 238, 242, 243, 242, 248, 258, 249, 232, 296, 301, 258, 256, 261, 279, 290, 291, 301, 299, 318, 319, 331, 327, 331, 322, 326, 336, 351, 360, 363, 381, 382, 395, 396, 403, 404, 244, 251, 241, 245, 251, 260, 249, 258, 255, 268, 285, 288, 296, 294, 284, 291, 301, 312, 312, 322, 339, 340, 341, 351, 346, 346, 327, 339, 340, 354, 367, 383, 397, 417, 418, 421, 409];
Start = 1;
End = 720;
Time = 410;
